36 36
23
3 3 21 33
3 4 33 4
3 5 15 16
6 3 24 33
3 7 0 0
3 8 33 8
3 9 33 16
3 10 0 26
3 11 33 25
3 12 18 0
3 14 0 7
3 15 15 21
3 16 15 0
3 24 18 12
3 36 30 0
3 4 33 0
4 11 21 0
4 22 21 11
3 5 0 21
5 4 25 0
5 14 25 4
5 15 25 18
12 36 3 0
